nN = 5;
nR = 15;
nH = 1;

a = [[10, 15, 20, 18, 21, 10, 16, 7, 16, 9, 13, 22, 10, 11, 9], [11, 13, 10, 24, 15, 20, 11, 7, 12, 5, 6, 17, 22, 20, 21], [8, 23, 5, 9, 10, 22, 13, 7, 17, 11, 8, 8, 8, 9, 8], [19, 13, 11, 11, 9, 10, 17, 20, 17, 24, 13, 8, 6, 23, 24], [19, 20, 5, 6, 23, 12, 22, 14, 20, 20, 17, 5, 8, 13, 24]];
c = [[[0, 0, 0, 0, 0, 0, 0, 0, 0, 0, 0, 0, 0, 0, 0], [49, 44, 31, 36, 31, 41, 34, 44, 43, 30, 44, 30, 35, 39, 43], [42, 44, 40, 46, 30, 43, 39, 46, 36, 33, 38, 32, 48, 34, 49], [32, 42, 39, 35, 30, 36, 30, 46, 45, 36, 34, 35, 40, 40, 46], [32, 36, 49, 33, 49, 33, 34, 35, 38, 37, 47, 50, 43, 37, 41]], [[0, 0, 0, 0, 0, 0, 0, 0, 0, 0, 0, 0, 0, 0, 0], [0, 0, 0, 0, 0, 0, 0, 0, 0, 0, 0, 0, 0, 0, 0], [42, 38, 45, 31, 36, 32, 46, 43, 34, 30, 40, 48, 31, 35, 37], [31, 30, 45, 32, 34, 36, 39, 43, 37, 48, 36, 48, 33, 39, 33], [45, 48, 44, 40, 33, 40, 35, 40, 32, 30, 33, 41, 50, 38, 45]], [[0, 0, 0, 0, 0, 0, 0, 0, 0, 0, 0, 0, 0, 0, 0], [0, 0, 0, 0, 0, 0, 0, 0, 0, 0, 0, 0, 0, 0, 0], [0, 0, 0, 0, 0, 0, 0, 0, 0, 0, 0, 0, 0, 0, 0], [47, 44, 47, 44, 44, 44, 33, 47, 41, 35, 43, 36, 46, 45, 38], [30, 48, 43, 50, 37, 43, 31, 40, 38, 34, 37, 33, 44, 36, 39]], [[0, 0, 0, 0, 0, 0, 0, 0, 0, 0, 0, 0, 0, 0, 0], [0, 0, 0, 0, 0, 0, 0, 0, 0, 0, 0, 0, 0, 0, 0], [0, 0, 0, 0, 0, 0, 0, 0, 0, 0, 0, 0, 0, 0, 0], [0, 0, 0, 0, 0, 0, 0, 0, 0, 0, 0, 0, 0, 0, 0], [34, 36, 43, 50, 35, 49, 46, 38, 40, 46, 36, 37, 32, 47, 45]], [[0, 0, 0, 0, 0, 0, 0, 0, 0, 0, 0, 0, 0, 0, 0], [0, 0, 0, 0, 0, 0, 0, 0, 0, 0, 0, 0, 0, 0, 0], [0, 0, 0, 0, 0, 0, 0, 0, 0, 0, 0, 0, 0, 0, 0], [0, 0, 0, 0, 0, 0, 0, 0, 0, 0, 0, 0, 0, 0, 0], [0, 0, 0, 0, 0, 0, 0, 0, 0, 0, 0, 0, 0, 0, 0]]];
Q = [[35], [43], [33], [42], [32]];

q = [[[8], [19], [7], [14], [16], [21], [10], [10], [12], [7], [24], [13], [19], [12], [21]], [[22], [19], [18], [23], [20], [25], [15], [12], [8], [15], [22], [22], [6], [14], [22]], [[8], [13], [6], [18], [20], [15], [16], [9], [5], [10], [14], [17], [8], [21], [25]], [[13], [20], [24], [18], [6], [23], [9], [22], [12], [19], [24], [9], [22], [24], [17]], [[14], [12], [15], [13], [12], [24], [5], [7], [8], [17], [11], [22], [8], [20], [11]]];
p = [0.44, 0.89, 0.75, 0.68, 0.77, 0.97, 0.27, 0.67, 0.6, 0.99, 0.17, 0.03, 0.05, 0.69, 0.26];
